NAME : Mavrovouniotis Menelaou Instances Test: 1
COMMENT : Converted from EVRP - stations removed
TYPE : CVRP
DIMENSION : 22
EDGE_WEIGHT_TYPE : EUC_2D
CAPACITY : 6000
NODE_COORD_SECTION
1 145.00000 215.00000
2 151.00000 264.00000
3 159.00000 261.00000
4 130.00000 254.00000
5 128.00000 252.00000
6 163.00000 247.00000
7 146.00000 246.00000
8 161.00000 242.00000
9 142.00000 239.00000
10 163.00000 236.00000
11 148.00000 232.00000
12 128.00000 231.00000
13 156.00000 217.00000
14 129.00000 214.00000
15 146.00000 208.00000
16 164.00000 208.00000
17 141.00000 206.00000
18 147.00000 193.00000
19 164.00000 193.00000
20 129.00000 189.00000
21 155.00000 185.00000
22 139.00000 182.00000
DEMAND_SECTION
1 0
2 1100
3 700
4 800
5 1400
6 2100
7 400
8 800
9 100
10 500
11 600
12 1200
13 1300
14 1300
15 300
16 900
17 2100
18 1000
19 900
20 2500
21 1800
22 700
DEPOT_SECTION
1
-1
EOF